p cnf 20 30
12 6 4 0
-7 8 -11 0
-2 20 -4 0
-12 -1 20 0
5 -6 -11 0
-10 -7 9 0
-3 -7 1 0
-8 -4 13 0
-20 7 -14 0
14 11 -17 0
-4 -16 -10 0
-15 2 -8 0
-7 -15 14 0
-16 -6 1 0
-15 -10 -14 0
1 -14 -13 0
-11 -17 18 0
16 5 12 0
3 17 15 0
-17 6 -19 0
8 -10 19 0
-14 -9 7 0
-14 5 -1 0
10 -14 15 0
-11 12 20 0
-2 -4 -14 0
4 -12 -1 0
-5 -18 1 0
-13 -15 2 0
13 -5 8 0
